 vasp.5.4.4.18Apr17-6-g9f103f2a35 (build Nov 22 2021 14:44:17) complex

 executed on             LinuxIFC date 2022.09.18  19:40:33

 INCAR:
 POTCAR:   PAW_GGA Al 05Jan2001
 POTCAR:   PAW_GGA Al 05Jan2001
   VRHFIN =Al: s2p1

   TITEL  = PAW_GGA Al 05Jan2001
   POMASS =   26.982; ZVAL   =    3.000    mass and valenz
   ENMAX  =  240.437; ENMIN  =  180.327 eV
   QCUT   =   -4.204; QGAM   =    8.408    optimization parameters

   Description
     l     E      TYP  RCUT    TYP  RCUT
     0   .000     23  1.900
     0   .000     23  1.900
     1   .000     23  1.900
     1  1.000     23  1.900
     2   .000      7  1.900

 PAW_GGA Al 05Jan2001                   :

 POSCAR: Al4
  positions in direct lattice
 exchange correlation table for  LEXCH =        7
   RHO(1)=    0.500       N(1)  =     2000
   RHO(2)=  100.500       N(2)  =     4000

 ion  position               nearest neighbor table
   1  0.000  0.000  0.000-   2 2.86   3 2.86   4 2.86   2 2.86   3 2.86   2 2.86   4 2.86   2 2.86
                             3 2.86   4 2.86   3 2.86   4 2.86
   2  0.000  0.500  0.500-   1 2.86   3 2.86   4 2.86   1 2.86   4 2.86   1 2.86   3 2.86   1 2.86
                             3 2.86   4 2.86   4 2.86   3 2.86
   3  0.500  0.000  0.500-   1 2.86   2 2.86   4 2.86   1 2.86   4 2.86   2 2.86   4 2.86   4 2.86
                             1 2.86   2 2.86   1 2.86   2 2.86
   4  0.500  0.500  0.000-   1 2.86   2 2.86   3 2.86   2 2.86   3 2.86   1 2.86   3 2.86   3 2.86
                             1 2.86   2 2.86   2 2.86   1 2.86

IMPORTANT INFORMATION: All symmetrisations will be switched off!
NOSYMM: (Re-)initialisation of all symmetry stuff for point group C_1.

 KPOINTS: Automatic kpoint scheme

Automatic generation of k-mesh.
Space group operators:
 irot       det(A)        alpha          n_x          n_y          n_z        tau_x        tau_y        tau_z
    1     1.000000     0.000001     1.000000     0.000000     0.000000     0.000000     0.000000     0.000000

 Subroutine IBZKPT returns following result:

 Found    256 irreducible k-points:

 Following reciprocal coordinates:
            Coordinates               Weight
  0.062500  0.062500  0.062500      2.000000
  0.187500  0.062500  0.062500      2.000000
  0.312500  0.062500  0.062500      2.000000
  0.437500  0.062500  0.062500      2.000000
 -0.437500  0.062500  0.062500      2.000000
 -0.312500  0.062500  0.062500      2.000000
 -0.187500  0.062500  0.062500      2.000000
 -0.062500  0.062500  0.062500      2.000000
  0.062500  0.187500  0.062500      2.000000
  0.187500  0.187500  0.062500      2.000000
  0.312500  0.187500  0.062500      2.000000
  0.437500  0.187500  0.062500      2.000000
 -0.437500  0.187500  0.062500      2.000000
 -0.312500  0.187500  0.062500      2.000000
 -0.187500  0.187500  0.062500      2.000000
 -0.062500  0.187500  0.062500      2.000000
  0.062500  0.312500  0.062500      2.000000
  0.187500  0.312500  0.062500      2.000000
  0.312500  0.312500  0.062500      2.000000
  0.437500  0.312500  0.062500      2.000000
 -0.437500  0.312500  0.062500      2.000000
 -0.312500  0.312500  0.062500      2.000000
 -0.187500  0.312500  0.062500      2.000000
 -0.062500  0.312500  0.062500      2.000000
  0.062500  0.437500  0.062500      2.000000
  0.187500  0.437500  0.062500      2.000000
  0.312500  0.437500  0.062500      2.000000
  0.437500  0.437500  0.062500      2.000000
 -0.437500  0.437500  0.062500      2.000000
 -0.312500  0.437500  0.062500      2.000000
 -0.187500  0.437500  0.062500      2.000000
 -0.062500  0.437500  0.062500      2.000000
  0.062500 -0.437500  0.062500      2.000000
  0.187500 -0.437500  0.062500      2.000000
  0.312500 -0.437500  0.062500      2.000000
  0.437500 -0.437500  0.062500      2.000000
 -0.437500 -0.437500  0.062500      2.000000
 -0.312500 -0.437500  0.062500      2.000000
 -0.187500 -0.437500  0.062500      2.000000
 -0.062500 -0.437500  0.062500      2.000000
  0.062500 -0.312500  0.062500      2.000000
  0.187500 -0.312500  0.062500      2.000000
  0.312500 -0.312500  0.062500      2.000000
  0.437500 -0.312500  0.062500      2.000000
 -0.437500 -0.312500  0.062500      2.000000
 -0.312500 -0.312500  0.062500      2.000000
 -0.187500 -0.312500  0.062500      2.000000
 -0.062500 -0.312500  0.062500      2.000000
  0.062500 -0.187500  0.062500      2.000000
  0.187500 -0.187500  0.062500      2.000000
  0.312500 -0.187500  0.062500      2.000000
  0.437500 -0.187500  0.062500      2.000000
 -0.437500 -0.187500  0.062500      2.000000
 -0.312500 -0.187500  0.062500      2.000000
 -0.187500 -0.187500  0.062500      2.000000
 -0.062500 -0.187500  0.062500      2.000000
  0.062500 -0.062500  0.062500      2.000000
  0.187500 -0.062500  0.062500      2.000000
  0.312500 -0.062500  0.062500      2.000000
  0.437500 -0.062500  0.062500      2.000000
[...]
  0.187500 -0.187500  0.437500      2.000000
  0.312500 -0.187500  0.437500      2.000000
  0.437500 -0.187500  0.437500      2.000000
 -0.437500 -0.187500  0.437500      2.000000
 -0.312500 -0.187500  0.437500      2.000000
 -0.187500 -0.187500  0.437500      2.000000
 -0.062500 -0.187500  0.437500      2.000000
  0.062500 -0.062500  0.437500      2.000000
  0.187500 -0.062500  0.437500      2.000000
  0.312500 -0.062500  0.437500      2.000000
  0.437500 -0.062500  0.437500      2.000000
 -0.437500 -0.062500  0.437500      2.000000
 -0.312500 -0.062500  0.437500      2.000000
 -0.187500 -0.062500  0.437500      2.000000
 -0.062500 -0.062500  0.437500      2.000000

 Following cartesian coordinates:
            Coordinates               Weight
  0.015432  0.015432  0.015432      2.000000
  0.046296  0.015432  0.015432      2.000000
  0.077160  0.015432  0.015432      2.000000
  0.108025  0.015432  0.015432      2.000000
 -0.108025  0.015432  0.015432      2.000000
 -0.077160  0.015432  0.015432      2.000000
 -0.046296  0.015432  0.015432      2.000000
 -0.015432  0.015432  0.015432      2.000000
  0.015432  0.046296  0.015432      2.000000
  0.046296  0.046296  0.015432      2.000000
  0.077160  0.046296  0.015432      2.000000
  0.108025  0.046296  0.015432      2.000000
 -0.108025  0.046296  0.015432      2.000000
 -0.077160  0.046296  0.015432      2.000000
 -0.046296  0.046296  0.015432      2.000000
 -0.015432  0.046296  0.015432      2.000000
  0.015432  0.077160  0.015432      2.000000
  0.046296  0.077160  0.015432      2.000000
  0.077160  0.077160  0.015432      2.000000
  0.108025  0.077160  0.015432      2.000000
 -0.108025  0.077160  0.015432      2.000000
 -0.077160  0.077160  0.015432      2.000000
 -0.046296  0.077160  0.015432      2.000000
 -0.015432  0.077160  0.015432      2.000000
  0.015432  0.108025  0.015432      2.000000
  0.046296  0.108025  0.015432      2.000000
  0.077160  0.108025  0.015432      2.000000
  0.108025  0.108025  0.015432      2.000000
 -0.108025  0.108025  0.015432      2.000000
 -0.077160  0.108025  0.015432      2.000000
 -0.046296  0.108025  0.015432      2.000000
 -0.015432  0.108025  0.015432      2.000000
  0.015432 -0.108025  0.015432      2.000000
  0.046296 -0.108025  0.015432      2.000000
  0.077160 -0.108025  0.015432      2.000000
  0.108025 -0.108025  0.015432      2.000000
 -0.108025 -0.108025  0.015432      2.000000
 -0.077160 -0.108025  0.015432      2.000000
 -0.046296 -0.108025  0.015432      2.000000
 -0.015432 -0.108025  0.015432      2.000000
  0.015432 -0.077160  0.015432      2.000000
  0.046296 -0.077160  0.015432      2.000000
  0.077160 -0.077160  0.015432      2.000000
  0.108025 -0.077160  0.015432      2.000000
 -0.108025 -0.077160  0.015432      2.000000
 -0.077160 -0.077160  0.015432      2.000000
 -0.046296 -0.077160  0.015432      2.000000
 -0.015432 -0.077160  0.015432      2.000000
  0.015432 -0.046296  0.015432      2.000000
  0.046296 -0.046296  0.015432      2.000000
  0.077160 -0.046296  0.015432      2.000000
  0.108025 -0.046296  0.015432      2.000000
 -0.108025 -0.046296  0.015432      2.000000
 -0.077160 -0.046296  0.015432      2.000000
 -0.046296 -0.046296  0.015432      2.000000
 -0.015432 -0.046296  0.015432      2.000000
  0.015432 -0.015432  0.015432      2.000000
  0.046296 -0.015432  0.015432      2.000000
  0.077160 -0.015432  0.015432      2.000000
  0.108025 -0.015432  0.015432      2.000000
[...]
  0.046296 -0.046296  0.108025      2.000000
  0.077160 -0.046296  0.108025      2.000000
  0.108025 -0.046296  0.108025      2.000000
 -0.108025 -0.046296  0.108025      2.000000
 -0.077160 -0.046296  0.108025      2.000000
 -0.046296 -0.046296  0.108025      2.000000
 -0.015432 -0.046296  0.108025      2.000000
  0.015432 -0.015432  0.108025      2.000000
  0.046296 -0.015432  0.108025      2.000000
  0.077160 -0.015432  0.108025      2.000000
  0.108025 -0.015432  0.108025      2.000000
 -0.108025 -0.015432  0.108025      2.000000
 -0.077160 -0.015432  0.108025      2.000000
 -0.046296 -0.015432  0.108025      2.000000
 -0.015432 -0.015432  0.108025      2.000000

 SYSTEM =  Opt
 POSCAR =  Al4

 Startparameter for this run:
   NWRITE =      2    write-flag & timer
   PREC   = accura    normal or accurate (medium, high low for compatibility)
   ISTART =      0    job   : 0-new  1-cont  2-samecut
   ICHARG =      2    charge: 1-file 2-atom 10-const
   ISPIN  =      1    spin polarized calculation?
   LNONCOLLINEAR =      F non collinear calculations
   LSORBIT =      F    spin-orbit coupling
   INIWAV =      1    electr: 0-lowe 1-rand  2-diag
   LASPH  =      F    aspherical Exc in radial PAW
   METAGGA=      F    non-selfconsistent MetaGGA calc.

 Electronic Relaxation 1
   ENCUT  =  600.0 eV  44.10 Ry    6.64 a.u.   8.09  8.09  8.09*2*pi/ulx,y,z
   ENINI  =  600.0     initial cutoff
   ENAUG  =  291.1 eV  augmentation charge cutoff
   NELM   =    100;   NELMIN=  6; NELMDL= -5     # of ELM steps
   EDIFF  = 0.1E-05   stopping-criterion for ELM
   LREAL  =      F    real-space projection
   NLSPLINE    = F    spline interpolate recip. space projectors
   LCOMPAT=      F    compatible to vasp.4.4
   GGA_COMPAT  = T    GGA compatible to vasp.4.4-vasp.4.6
   LMAXPAW     = -100 max onsite density
   LMAXMIX     =    2 max onsite mixed and CHGCAR
   VOSKOWN=      0    Vosko Wilk Nusair interpolation
   ROPT   =    0.00000
 Ionic relaxation
   EDIFFG = -.1E-01   stopping-criterion for IOM
   NSW    =    200    number of steps for IOM
   NBLOCK =      1;   KBLOCK =    200    inner block; outer block
   IBRION =      2    ionic relax: 0-MD 1-quasi-New 2-CG
   NFREE  =      1    steps in history (QN), initial steepest desc. (CG)
   ISIF   =      3    stress and relaxation
   IWAVPR =     11    prediction:  0-non 1-charg 2-wave 3-comb
   ISYM   =      0    0-nonsym 1-usesym 2-fastsym
   LCORR  =      T    Harris-Foulkes like correction to forces

   POTIM  = 0.1000    time-step for ionic-motion
   TEIN   =    0.0    initial temperature
   TEBEG  =    0.0;   TEEND  =   0.0 temperature during run
   SMASS  =  -3.00    Nose mass-parameter (am)
   estimated Nose-frequenzy (Omega)   =  0.10E-29 period in steps =****** mass=  -0.375E-27a.u.
   SCALEE = 1.0000    scale energy and forces
[...]
 k-point ** :  -0.1875-0.3125 0.1875  plane waves:    2219
 k-point ** :  -0.0625-0.3125 0.1875  plane waves:    2217
 k-point ** :   0.0625-0.1875 0.1875  plane waves:    2214
 k-point ** :   0.1875-0.1875 0.1875  plane waves:    2214
 k-point ** :   0.3125-0.1875 0.1875  plane waves:    2219
 k-point ** :   0.4375-0.1875 0.1875  plane waves:    2212
 k-point ** :  -0.4375-0.1875 0.1875  plane waves:    2212
 k-point ** :  -0.3125-0.1875 0.1875  plane waves:    2219
 k-point ** :  -0.1875-0.1875 0.1875  plane waves:    2214
 k-point ** :  -0.0625-0.1875 0.1875  plane waves:    2214
 k-point ** :   0.0625-0.0625 0.1875  plane waves:    2214
 k-point ** :   0.1875-0.0625 0.1875  plane waves:    2214
 k-point ** :   0.3125-0.0625 0.1875  plane waves:    2217
 k-point ** :   0.4375-0.0625 0.1875  plane waves:    2211
 k-point ** :  -0.4375-0.0625 0.1875  plane waves:    2211
 k-point ** :  -0.3125-0.0625 0.1875  plane waves:    2217
 k-point ** :  -0.1875-0.0625 0.1875  plane waves:    2214
 k-point ** :  -0.0625-0.0625 0.1875  plane waves:    2214
 k-point ** :   0.0625 0.0625 0.3125  plane waves:    2216
 k-point ** :   0.1875 0.0625 0.3125  plane waves:    2217
 k-point ** :   0.3125 0.0625 0.3125  plane waves:    2214
 k-point ** :   0.4375 0.0625 0.3125  plane waves:    2213
 k-point ** :  -0.4375 0.0625 0.3125  plane waves:    2213
 k-point ** :  -0.3125 0.0625 0.3125  plane waves:    2214
 k-point ** :  -0.1875 0.0625 0.3125  plane waves:    2217
 k-point ** :  -0.0625 0.0625 0.3125  plane waves:    2216
 k-point ** :   0.0625 0.1875 0.3125  plane waves:    2217
 k-point ** :   0.1875 0.1875 0.3125  plane waves:    2219
 k-point ** :   0.3125 0.1875 0.3125  plane waves:    2219
 k-point ** :   0.4375 0.1875 0.3125  plane waves:    2217
 k-point ** :  -0.4375 0.1875 0.3125  plane waves:    2217
 k-point ** :  -0.3125 0.1875 0.3125  plane waves:    2219
 k-point ** :  -0.1875 0.1875 0.3125  plane waves:    2219
 k-point ** :  -0.0625 0.1875 0.3125  plane waves:    2217
 k-point ** :   0.0625 0.3125 0.3125  plane waves:    2214
 k-point ** :   0.1875 0.3125 0.3125  plane waves:    2219
 k-point ** :   0.3125 0.3125 0.3125  plane waves:    2226
 k-point ** :   0.4375 0.3125 0.3125  plane waves:    2232
 k-point ** :  -0.4375 0.3125 0.3125  plane waves:    2232
 k-point ** :  -0.3125 0.3125 0.3125  plane waves:    2226
 k-point ** :  -0.1875 0.3125 0.3125  plane waves:    2219
 k-point ** :  -0.0625 0.3125 0.3125  plane waves:    2214
 k-point ** :   0.0625 0.4375 0.3125  plane waves:    2213
 k-point ** :   0.1875 0.4375 0.3125  plane waves:    2217
 k-point ** :   0.3125 0.4375 0.3125  plane waves:    2232
 k-point ** :   0.4375 0.4375 0.3125  plane waves:    2234
 k-point ** :  -0.4375 0.4375 0.3125  plane waves:    2234
 k-point ** :  -0.3125 0.4375 0.3125  plane waves:    2232
 k-point ** :  -0.1875 0.4375 0.3125  plane waves:    2217
[...]
 k-point ** :   0.1875-0.1875 0.4375  plane waves:    2212
 k-point ** :   0.3125-0.1875 0.4375  plane waves:    2217
 k-point ** :   0.4375-0.1875 0.4375  plane waves:    2230
 k-point ** :  -0.4375-0.1875 0.4375  plane waves:    2230
 k-point ** :  -0.3125-0.1875 0.4375  plane waves:    2217
 k-point ** :  -0.1875-0.1875 0.4375  plane waves:    2212
 k-point ** :  -0.0625-0.1875 0.4375  plane waves:    2211
 k-point ** :   0.0625-0.0625 0.4375  plane waves:    2205
 k-point ** :   0.1875-0.0625 0.4375  plane waves:    2211
 k-point ** :   0.3125-0.0625 0.4375  plane waves:    2213
 k-point ** :   0.4375-0.0625 0.4375  plane waves:    2211
 k-point ** :  -0.4375-0.0625 0.4375  plane waves:    2211
 k-point ** :  -0.3125-0.0625 0.4375  plane waves:    2213
 k-point ** :  -0.1875-0.0625 0.4375  plane waves:    2211
 k-point ** :  -0.0625-0.0625 0.4375  plane waves:    2205

 maximum and minimum number of plane-waves per node :      1131     1092

 maximum number of plane-waves:      2248
 maximum index in each direction:
   IXMAX=    8   IYMAX=    8   IZMAX=    8
   IXMIN=   -8   IYMIN=   -8   IZMIN=   -8

 parallel 3D FFT for wavefunctions:
    minimum data exchange during FFTs selected (reduces bandwidth)
 parallel 3D FFT for charge:
    minimum data exchange during FFTs selected (reduces bandwidth)

 Broyden mixing: mesh for mixing (old mesh)
   NGX = 17   NGY = 17   NGZ = 17
  (NGX  = 64   NGY  = 64   NGZ  = 64)
  gives a total of   4913 points

 initial charge density was supplied:
 charge density of overlapping atoms calculated
 number of electron      12.0000000 magnetization
 keeping initial charge density in first step

 Maximum index for augmentation-charges          943 (set IRDMAX)

 First call to EWALD:  gamma=   0.438
 Maximum number of real-space cells 3x 3x 3
 Maximum number of reciprocal cells 3x 3x 3

--------------------------------------- Iteration      1(   1)  ---------------------------------------

 eigenvalue-minimisations  :  8192
 total energy-change (2. order) : 0.7704560E+01  (-0.4504038E+03)
 number of electron      12.0000000 magnetization
 augmentation part       12.0000000 magnetization

 Free energy of the ion-electron system (eV)
  alpha Z        PSCENC =        -0.61330648
  Ewald energy   TEWEN  =      -293.42683892
  -Hartree energ DENC   =        -0.42200802
  -exchange      EXHF   =         0.00000000
  -V(xc)+E(xc)   XCENC  =      -105.62210222
  PAW double counting   =       142.63640024      -14.42330091
  entropy T*S    EENTRO =        -0.00287893
  eigenvalues    EBANDS =        64.81521707
  atomic energy  EATOM  =       214.76337790
  Solvation  Ediel_sol  =         0.00000000
  free energy    TOTEN  =         7.70455975 eV

  energy without entropy =        7.70743867  energy(sigma->0) =        7.70551939

[...]

 eigenvalue-minimisations  : 10936
 total energy-change (2. order) :-0.2189013E+02  (-0.2056507E+02)
 number of electron      12.0000000 magnetization
 augmentation part       12.0000000 magnetization

[...]

 Broyden mixing:
  rms(total) = 0.18220E+00    rms(broyden)= 0.18220E+00
  rms(prec ) = 0.42114E+00
  weight for this iteration     100.00

[...]

 eigenvalues of (default mixing * dielectric matrix)
  average eigenvalue GAMMA=   2.6387
  2.6387

[...]

 average (electrostatic) potential at core
  the test charge radii are     1.0406
  (the norm of the test charge is              1.0000)
       1 -72.3066       2 -72.3066       3 -72.3066       4 -72.3066

 E-fermi :   7.8717     XC(G=0): -10.1859     alpha+bet :-14.7760

 k-point     1 :       0.0625    0.0625    0.0625
  band No.  band energies     occupation
      1      -3.0767      2.00000
      2       4.4817      2.00000
      3       4.4817      2.00000
      4       4.4817      2.00000
      5       7.0067      2.00000
      6       7.0067      2.00000
      7       7.0067      2.00000
      8      11.7124     -0.00000
      9      11.7124     -0.00000
     10      11.7124     -0.00000
     11      13.5325      0.00000
     12      13.5325      0.00000
     13      13.5325      0.00000
     14      14.4740      0.00000
     15      14.4740      0.00000
     16      14.4740      0.00000

[...]

 soft charge-density along one line, spin component           1
         0         1         2         3         4         5         6         7         8         9
 total charge-density along one line

------------------------ aborting loop because EDIFF is reached ----------------------------------------

  FORCE on cell =-STRESS in cart. coord.  units (eV):
  Direction    XX          YY          ZZ          XY          YZ          ZX
  Alpha Z    -0.61331    -0.61331    -0.61331
  Ewald     -97.80899   -97.80899   -97.80899     0.00000     0.00000    -0.00000
  Hartree     0.13926     0.13926     0.13926     0.00000     0.00000     0.00000
  E(xc)     -34.52795   -34.52795   -34.52795    -0.00000    -0.00000    -0.00000
  Local       0.86823     0.86823     0.86823    -0.00000    -0.00000    -0.00000
  n-local    76.19259    76.19259    76.19259     0.00000    -0.00000    -0.00000
  augment    -4.29432    -4.29432    -4.29432     0.00000     0.00000     0.00000
  Kinetic    59.87831    59.87831    59.87831    -0.00000     0.00000    -0.00000
  Fock        0.00000     0.00000     0.00000     0.00000     0.00000     0.00000
  Total      -0.16617    -0.16617    -0.16617    -0.00000    -0.00000    -0.00000
  in kB      -4.00775    -4.00775    -4.00775    -0.00000    -0.00000    -0.00000

 VOLUME and BASIS-vectors are now :
  energy-cutoff  :      600.00
  volume of cell :       66.43
      direct lattice vectors                 reciprocal lattice vectors
     4.050000000  0.000000000  0.000000000     0.246913580  0.000000000  0.000000000
     0.000000000  4.050000000  0.000000000     0.000000000  0.246913580  0.000000000
     0.000000000  0.000000000  4.050000000     0.000000000  0.000000000  0.246913580

[...]

 FORCES acting on ions
    electron-ion (+dipol)            ewald-force                    non-local-force                 convergence-correction
   -.111E-06 -.345E-08 0.149E-06   -.537E-15 0.393E-15 -.297E-16   0.106E-06 0.248E-07 -.414E-07   0.244E-07 -.151E-07 -.860E-07
   0.985E-07 0.355E-07 -.199E-06   -.498E-15 -.237E-16 0.302E-15   -.774E-07 -.419E-07 0.104E-06   -.305E-07 0.252E-08 0.899E-07
   0.286E-08 0.105E-06 -.237E-06   0.413E-15 0.538E-16 0.307E-15   0.178E-08 -.529E-07 0.124E-06   -.346E-08 -.391E-07 0.104E-06
   -.355E-07 -.173E-06 0.246E-06   0.452E-15 -.363E-15 -.696E-15   0.362E-07 0.129E-06 -.127E-06   0.948E-08 0.524E-07 -.108E-06
   -.452E-07 -.352E-07 -.411E-07   -.169E-15 0.601E-16 -.116E-15   0.666E-07 0.593E-07 0.599E-07   -.866E-10 0.767E-09 -.116E-10

 POSITION                                       TOTAL-FORCE (eV/Angst)
      0.00000      0.00000      0.00000         0.000000      0.000000      0.000000
      0.00000      2.02500      2.02500        -0.000000     -0.000000     -0.000000
      2.02500      0.00000      2.02500        -0.000000      0.000000     -0.000000
      2.02500      2.02500      0.00000         0.000000      0.000000      0.000000
    total drift:                                0.000000      0.000000      0.000000

  FREE ENERGIE OF THE ION-ELECTRON SYSTEM (eV)
  free  energy   TOTEN  =       -14.80413061 eV

  energy  without entropy=      -14.80193758  energy(sigma->0) =      -14.80339960

[...]

 d Force = 0.5157958E-17[-0.118E-17, 0.115E-16]  d Energy = 0.1787594E-03-0.179E-03
 d Force =-0.2202824E-17[-0.441E-17,-0.112E-24]  d Ewald  = 0.1176604E+00-0.118E+00

 Steepest descent step on ions:
 trial-energy change:   -0.000179  1 .order   -0.000178   -0.000200   -0.000156
  (g-gl).g = 0.200E-03      g.g   = 0.200E-03  gl.gl    = 0.000E+00
 g(Force)  = 0.115E-16   g(Stress)= 0.200E-03 ortho     = 0.000E+00
 gamma     =   0.00000
 trial     =   1.00000
 opt step  =   4.00000  (harmonic =   4.56491) maximal distance =0.00000000
 next E    =   -14.804587   (d E  =  -0.00046)

[...]

 eigenvalue-minimisations  :  5624
 total energy-change (2. order) :-0.6460428E-07  (-0.7731993E-09)
 number of electron      12.0000000 magnetization
 augmentation part       -0.1635779 magnetization

 Broyden mixing:
  rms(total) = 0.34800E-05    rms(broyden)= 0.34800E-05
  rms(prec ) = 0.63405E-05
  weight for this iteration     100.00

 eigenvalues of (default mixing * dielectric matrix)
  average eigenvalue GAMMA=   1.8467
  2.6992  2.6016  1.0298  1.0560

[...]

--------------------------------------- Iteration      3(   6)  ---------------------------------------

 eigenvalue-minimisations  :  5608
 total energy-change (2. order) : 0.1101995E-08  (-0.1319660E-09)
 number of electron      12.0000000 magnetization
 augmentation part       -0.1635779 magnetization

 Free energy of the ion-electron system (eV)
  alpha Z        PSCENC =        -0.61626592
  Ewald energy   TEWEN  =      -293.89804738
  -Hartree energ DENC   =        -0.41994734
  -exchange      EXHF   =         0.00000000
  -V(xc)+E(xc)   XCENC  =      -105.13895331
  PAW double counting   =       143.06373814      -14.91978334
  entropy T*S    EENTRO =        -0.00227182
  eigenvalues    EBANDS =        42.36357170
  atomic energy  EATOM  =       214.76337790
  Solvation  Ediel_sol  =         0.00000000
  free energy    TOTEN  =       -14.80458137 eV

  energy without entropy =      -14.80230955  energy(sigma->0) =      -14.80382410

 average (electrostatic) potential at core
  the test charge radii are     1.0406
  (the norm of the test charge is              1.0000)
       1 -72.2504       2 -72.2504       3 -72.2504       4 -72.2504

 E-fermi :   7.9204     XC(G=0): -10.2034     alpha+bet :-14.8473

[...]

 k-point   256 :      -0.0625   -0.0625    0.4375
  band No.  band energies     occupation
      1      -1.3745      2.00000
      2      -0.2627      2.00000
      3       6.0961      2.00000
      4       6.0961      2.00000
      5       7.1507      2.00000
      6       7.1507      2.00000
      7       8.6237     -0.00001
      8       8.6237     -0.00001
      9       9.8738     -0.00000
     10       9.8738     -0.00000
     11      13.3169     -0.00000
     12      14.3488      0.00000
     13      14.7652      0.00000
     14      15.0466      0.00000
     15      16.0074      0.00000
     16      16.1174      0.00000

 soft charge-density along one line, spin component           1
         0         1         2         3         4         5         6         7         8         9
 total charge-density along one line

------------------------ aborting loop because EDIFF is reached ----------------------------------------

  FORCE on cell =-STRESS in cart. coord.  units (eV):
  Direction    XX          YY          ZZ          XY          YZ          ZX
  Alpha Z    -0.61627    -0.61627    -0.61627
  Ewald     -97.96606   -97.96606   -97.96606     0.00000     0.00000     0.00000
  Hartree     0.13998     0.13998     0.13998     0.00000     0.00000     0.00000
  E(xc)     -34.57843   -34.57843   -34.57843    -0.00000     0.00000    -0.00000
  Local       0.95376     0.95376     0.95376    -0.00000    -0.00000    -0.00000
  n-local    76.26748    76.26748    76.26748     0.00000     0.00000     0.00000
  augment    -4.28214    -4.28214    -4.28214     0.00000    -0.00000    -0.00000
  Kinetic    60.06225    60.06225    60.06225     0.00000     0.00000     0.00000
  Fock        0.00000     0.00000     0.00000     0.00000     0.00000     0.00000
  Total      -0.01942    -0.01942    -0.01942     0.00000     0.00000     0.00000
  in kB      -0.47071    -0.47071    -0.47071     0.00000     0.00000     0.00000

 VOLUME and BASIS-vectors are now :
  energy-cutoff  :      600.00
  volume of cell :       66.11
      direct lattice vectors                 reciprocal lattice vectors
     4.043506612 -0.000000001 -0.000000001     0.247310094  0.000000000  0.000000000
    -0.000000001  4.043506611 -0.000000001     0.000000000  0.247310094  0.000000000
    -0.000000001 -0.000000001  4.043506610     0.000000000  0.000000000  0.247310094

  length of vectors
     4.043506612  4.043506611  4.043506610     0.247310094  0.247310094  0.247310094

 FORCES acting on ions
    electron-ion (+dipol)            ewald-force                    non-local-force                 convergence-correction
   0.126E-07 0.715E-08 0.335E-07   -.793E-08 -.720E-08 -.323E-07   -.827E-08 0.194E-08 -.492E-08   0.231E-08 0.435E-09 -.153E-08
   -.244E-07 -.132E-07 -.355E-07   0.971E-08 0.133E-07 0.280E-07   0.108E-07 -.184E-09 0.785E-08   0.345E-08 -.946E-09 0.155E-08
   0.110E-08 0.156E-07 -.367E-07   0.186E-08 -.115E-07 0.300E-07   -.940E-09 -.744E-08 0.663E-08   -.219E-08 0.526E-09 0.231E-08
   0.180E-07 -.161E-08 0.414E-07   -.365E-08 0.541E-08 -.257E-07   -.979E-08 -.282E-08 -.113E-07   -.397E-08 -.721E-10 -.231E-08
   0.730E-08 0.795E-08 0.270E-08   0.755E-16 0.146E-15 0.788E-16   -.818E-08 -.850E-08 -.175E-08   -.395E-09 -.562E-10 0.164E-10

 POSITION                                       TOTAL-FORCE (eV/Angst)
      0.00000      0.00000      0.00000        -0.000000      0.000000     -0.000000
     -0.00000      2.02175      2.02175        -0.000000     -0.000000      0.000000
      2.02175     -0.00000      2.02175         0.000000     -0.000000      0.000000
      2.02175      2.02175     -0.00000         0.000000      0.000000      0.000000
    total drift:                               -0.000000     -0.000000      0.000000

  FREE ENERGIE OF THE ION-ELECTRON SYSTEM (eV)
  free  energy   TOTEN  =       -14.80458137 eV

  energy  without entropy=      -14.80230955  energy(sigma->0) =      -14.80382410

 d Force =-0.3772233E-17[-0.400E-17,-0.354E-17]  d Energy = 0.2720022E-03-0.272E-03
 d Force =-0.3308678E-16[-0.530E-16,-0.132E-16]  d Ewald  = 0.3535481E+00-0.354E+00

 reached required accuracy - stopping structural energy minimisation